interdiction/MCDM/NO_CORR/GEN_FROM_60/15_ITEMS_1000_GEN/K5015W03.KNP.mps
NAME          BLANK   
ROWS
 N  OBJROW
 L  R0000000
COLUMNS
    C0000000  OBJROW     -36.          R0000000  450.        
    C0000001  OBJROW     -901.         R0000000  181.        
    C0000002  OBJROW     -956.         R0000000  236.        
    C0000003  OBJROW     -2.           R0000000  197.        
    C0000004  OBJROW     -777.         R0000000  382.        
    C0000005  OBJROW     -559.         R0000000  932.        
    C0000006  OBJROW     -491.         R0000000  39.         
    C0000007  OBJROW     -743.         R0000000  580.        
    C0000008  OBJROW     -19.          R0000000  174.        
    C0000009  OBJROW     -650.         R0000000  3.          
    C0000010  OBJROW     -455.         R0000000  454.        
    C0000011  OBJROW     -315.         R0000000  956.        
    C0000012  OBJROW     -518.         R0000000  990.        
    C0000013  OBJROW     -206.         R0000000  788.        
    C0000014  OBJROW     -888.         R0000000  888.        
RHS
    RHS       R0000000  13865.      
BOUNDS
 BV BOUND     C0000000  1.          
 BV BOUND     C0000001  1.          
 BV BOUND     C0000002  1.          
 BV BOUND     C0000003  1.          
 BV BOUND     C0000004  1.          
 BV BOUND     C0000005  1.          
 BV BOUND     C0000006  1.          
 BV BOUND     C0000007  1.          
 BV BOUND     C0000008  1.          
 BV BOUND     C0000009  1.          
 BV BOUND     C0000010  1.          
 BV BOUND     C0000011  1.          
 BV BOUND     C0000012  1.          
 BV BOUND     C0000013  1.          
 BV BOUND     C0000014  1.          
ENDATA
