interdiction/MCDM/NO_CORR/GEN_FROM_60/15_ITEMS_1000_GEN/K5015W03.KNP.txt
N 15
M 16
LC 15
LC 16
LC 17
LC 18
LC 19
LC 20
LC 21
LC 22
LC 23
LC 24
LC 25
LC 26
LC 27
LC 28
LC 29
LR 1
LR 2
LR 3
LR 4
LR 5
LR 6
LR 7
LR 8
LR 9
LR 10
LR 11
LR 12
LR 13
LR 14
LR 15
LR 16
LO -36
LO -901
LO -956
LO -2
LO -777
LO -559
LO -491
LO -743
LO -19
LO -650
LO -455
LO -315
LO -518
LO -206
LO -888
OS 1
IC 713
IC 574
IC 484
IC 914
IC 296
IC 841
IC 920
IC 899
IC 824
IC 544
IC 812
IC 320
IC 267
IC 23
IC 695
IB 4563
